c   #vars: 116   #clauses: 536   #literals: 1464
c 
p cnf 116 536
2 3 -26 110 0
-2 -3 0
-4 -5 0
-6 -7 0
-8 -9 0
11 12 -58 62 0
-11 -12 0
-13 -14 0
-15 -16 0
-18 -19 0
-20 -21 0
-22 -23 0
-26 -27 0
-28 -29 0
-30 -31 0
-32 -33 0
-34 -35 0
60 61 77 78 0
28 29 101 102 0
-36 -37 0
-38 -39 0
15 16 26 27 0
-40 -41 0
-42 -43 0
-44 -45 0
-46 -47 0
-48 -49 0
-50 -51 0
-52 -53 0
-54 -55 0
-56 -57 0
-58 -59 0
-60 -61 0
-63 -64 0
-65 -66 0
-67 -68 0
32 33 99 100 0
-69 -70 0
-71 -72 0
-73 -74 0
-75 -76 0
-77 -78 0
-79 -80 0
-82 -83 0
-84 -85 0
-86 -87 0
-88 -89 0
-90 -91 0
-92 -93 0
-94 -95 0
-96 -97 0
6 7 84 85 0
20 21 63 64 0
44 45 -95 107 0
-99 -100 0
50 51 84 85 0
73 74 77 78 0
-101 -102 0
-103 -104 0
32 33 54 55 0
-105 -106 0
71 72 77 78 0
44 45 88 89 0
10 -58 101 102 0
17 -21 48 49 0
42 43 111 112 0
-108 -109 0
67 68 108 109 0
-111 -112 0
32 33 75 76 0
-113 -114 0
26 27 86 87 0
-115 -116 0
2 3 -18 110 0
-1 -27 0
1 -45 -82 107 0
8 9 10 -101 0
-1 -83 0
1 82 83 -107 0
17 -21 105 106 0
17 20 21 -106 0
1 -26 82 83 0
17 48 49 -97 0
82 83 99 100 0
-2 -11 0
-3 -12 0
96 97 108 109 0
-1 44 45 107 0
-3 -98 0
28 29 60 61 0
-2 -108 0
-3 -109 0
48 49 60 61 0
-3 -110 0
-4 -30 0
-5 -31 0
17 -49 96 97 0
-4 -38 0
-5 -39 0
-4 -46 0
-5 -47 0
-67 98 105 106 0
-4 -73 0
-5 -74 0
6 7 13 14 0
-6 -13 0
-7 -14 0
77 78 115 116 0
-6 -84 0
-7 -85 0
46 47 54 55 0
-6 -86 0
-7 -87 0
18 19 99 100 0
-6 -90 0
-7 -91 0
13 14 103 104 0
11 12 -52 62 0
-9 -10 0
-8 -40 0
-9 -41 0
52 53 -58 62 0
-8 -92 0
-9 -93 0
11 12 111 112 0
-8 -99 0
-9 -100 0
11 12 13 14 0
-8 -115 0
-9 -116 0
88 89 101 102 0
-52 58 59 62 0
-10 -59 0
88 89 94 95 0
-11 58 59 62 0
-10 -102 0
25 52 53 -84 0
-11 -13 0
-12 -14 0
-11 -50 0
-12 -51 0
-2 98 105 106 0
-12 -62 0
-11 -79 0
-12 -80 0
8 9 92 93 0
-11 -111 0
-12 -112 0
75 76 99 100 0
-13 -58 0
-14 -59 0
50 51 67 68 0
-13 -103 0
-14 -104 0
25 52 53 -60 0
-15 -26 0
-16 -27 0
32 33 56 57 0
-15 -30 0
-16 -31 0
50 51 103 104 0
-15 -32 0
-16 -33 0
46 47 99 100 0
-15 -103 0
-16 -104 0
1 -26 -45 107 0
-15 -105 0
-16 -106 0
-17 -20 0
-17 -48 0
24 -91 99 100 0
42 43 65 66 0
-17 -96 0
24 -57 99 100 0
8 9 99 100 0
25 -60 84 85 0
-17 -105 0
24 90 91 -100 0
2 3 11 12 0
-18 -67 0
-19 -68 0
25 60 61 -84 0
-18 -82 0
-19 -83 0
28 29 82 83 0
-18 -99 0
-19 -100 0
-2 18 19 110 0
-19 -110 0
-20 -63 0
-21 -64 0
15 16 30 31 0
-20 -67 0
-21 -68 0
4 5 30 31 0
-20 -77 0
-21 -78 0
36 37 96 97 0
-20 -79 0
-21 -80 0
40 41 88 89 0
-20 -103 0
-21 -104 0
-22 -32 0
-23 -33 0
17 -97 105 106 0
-22 -36 0
-23 -37 0
24 56 57 -100 0
-22 -65 0
-23 -66 0
40 41 60 61 0
-22 -108 0
-23 -109 0
-24 -56 0
-24 -90 0
22 23 32 33 0
22 23 36 37 0
-24 -99 0
20 21 67 68 0
17 -21 96 97 0
10 58 59 -101 0
-69 81 94 95 0
-25 -53 0
67 68 90 91 0
-36 81 94 95 0
-25 -61 0
8 9 10 -58 0
-25 -85 0
25 -52 60 61 0
25 -52 84 85 0
8 9 40 41 0
-26 -34 0
-27 -35 0
-26 -38 0
-27 -39 0
65 66 73 74 0
-26 -63 0
-27 -64 0
52 53 94 95 0
-26 -86 0
-27 -87 0
-27 -110 0
28 29 44 45 0
-28 -44 0
-29 -45 0
44 45 77 78 0
-28 -60 0
-29 -61 0
38 39 65 66 0
-28 -63 0
-29 -64 0
-28 -82 0
-29 -83 0
44 45 65 66 0
-28 -88 0
-29 -89 0
22 23 108 109 0
-28 -101 0
-29 -102 0
-11 52 53 62 0
-28 -111 0
-29 -112 0
34 35 111 112 0
-30 -52 0
-31 -53 0
11 12 79 80 0
34 35 90 91 0
-30 -79 0
-31 -80 0
88 89 108 109 0
-30 -94 0
-31 -95 0
-32 -52 0
-33 -53 0
44 45 79 80 0
-32 -54 0
-33 -55 0
13 14 58 59 0
-32 -56 0
-33 -57 0
46 47 71 72 0
-32 -69 0
-33 -70 0
18 19 82 83 0
-32 -75 0
-33 -76 0
60 61 88 89 0
-32 -99 0
-33 -100 0
40 41 56 57 0
-34 -48 0
-35 -49 0
36 37 -69 81 0
-34 -54 0
-35 -55 0
36 37 105 106 0
-34 -79 0
-35 -80 0
-34 -90 0
-35 -91 0
-34 -111 0
-35 -112 0
4 5 38 39 0
-36 -60 0
-37 -61 0
1 26 27 -107 0
-37 -81 0
-36 -96 0
-37 -97 0
44 45 71 72 0
-36 -105 0
-37 -106 0
-38 -65 0
-39 -66 0
54 55 71 72 0
-38 -75 0
-39 -76 0
69 70 103 104 0
-38 -86 0
-39 -87 0
101 102 103 104 0
26 27 38 39 0
1 -82 -95 107 0
-40 -56 0
-41 -57 0
-40 -60 0
-41 -61 0
34 35 48 49 0
-40 -63 0
-41 -64 0
-40 -88 0
-41 -89 0
42 43 48 49 0
69 70 81 -94 0
4 5 46 47 0
-42 -48 0
-43 -49 0
-42 -65 0
-43 -66 0
67 68 75 76 0
-42 -75 0
-43 -76 0
63 64 79 80 0
-42 -111 0
-43 -112 0
20 21 77 78 0
-44 -65 0
-45 -66 0
-18 26 27 110 0
-44 -71 0
-45 -72 0
63 64 86 87 0
-44 -77 0
-45 -78 0
50 51 54 55 0
-44 -79 0
-45 -80 0
34 35 54 55 0
-44 -88 0
-45 -89 0
32 33 69 70 0
-44 -107 0
17 20 21 -97 0
8 9 115 116 0
-46 -54 0
-47 -55 0
30 31 79 80 0
-46 -71 0
-47 -72 0
18 19 67 68 0
-46 -99 0
-47 -100 0
11 12 50 51 0
-48 -60 0
-49 -61 0
-48 -69 0
-49 -70 0
50 51 92 93 0
-48 -96 0
-49 -97 0
30 31 52 53 0
-50 -54 0
-51 -55 0
-8 10 101 102 0
-50 -67 0
-51 -68 0
-50 -84 0
-51 -85 0
56 57 115 116 0
-50 -92 0
-51 -93 0
-50 -103 0
-51 -104 0
28 29 111 112 0
-53 -62 0
40 41 63 64 0
-52 -94 0
-53 -95 0
36 37 60 61 0
36 37 81 -94 0
-54 -71 0
-55 -72 0
2 3 108 109 0
-54 -101 0
-55 -102 0
92 93 115 116 0
-54 -113 0
-55 -114 0
17 96 97 -106 0
-56 -84 0
-57 -85 0
15 16 32 33 0
-56 -115 0
-57 -116 0
48 49 96 97 0
-94 -95 113 114 0
-59 -62 0
58 59 73 74 0
-58 -73 0
-59 -74 0
4 5 73 74 0
-58 -105 0
-59 -106 0
38 39 86 87 0
-60 -77 0
-61 -78 0
86 87 105 106 0
-60 -88 0
-61 -89 0
26 27 63 64 0
-60 -115 0
-61 -116 0
79 80 113 114 0
-2 67 68 98 0
24 56 57 -91 0
2 3 98 -105 0
32 33 52 53 0
2 3 -67 98 0
22 23 65 66 0
-63 -79 0
-64 -80 0
65 66 113 114 0
-63 -86 0
-64 -87 0
38 39 75 76 0
-65 -73 0
-66 -74 0
60 61 115 116 0
-65 -113 0
-66 -114 0
99 100 115 116 0
67 68 98 -105 0
18 19 -26 110 0
-67 -75 0
-68 -76 0
73 74 92 93 0
-67 -90 0
-68 -91 0
54 55 101 102 0
-45 94 95 107 0
-68 -98 0
-67 -108 0
-68 -109 0
34 35 79 80 0
1 26 27 -82 0
-70 -81 0
54 55 113 114 0
-69 -103 0
-70 -104 0
92 93 96 97 0
-71 -77 0
-72 -78 0
42 43 75 76 0
-73 -77 0
-74 -78 0
-73 -92 0
-74 -93 0
24 -57 90 91 0
-75 -99 0
-76 -100 0
6 7 86 87 0
-77 -115 0
-78 -116 0
15 16 105 106 0
-79 -113 0
-80 -114 0
17 -49 105 106 0
-81 -95 0
48 49 69 70 0
-36 69 70 81 0
-2 26 27 110 0
56 57 84 85 0
-82 -99 0
-83 -100 0
6 7 90 91 0
-84 -105 0
-85 -106 0
30 31 94 95 0
-86 -96 0
-87 -97 0
-86 -105 0
-87 -106 0
86 87 96 97 0
-88 -94 0
-89 -95 0
15 16 103 104 0
-88 -101 0
-89 -102 0
-88 -108 0
-89 -109 0
84 85 105 106 0
-92 -96 0
-93 -97 0
20 21 79 80 0
-92 -115 0
-93 -116 0
28 29 63 64 0
-94 -107 0
17 20 21 -49 0
-96 -108 0
-97 -109 0
-1 94 95 107 0
-98 -106 0
26 27 34 35 0
-99 -115 0
-100 -116 0
58 59 105 106 0
-101 -103 0
-102 -104 0
1 -26 -95 107 0
17 48 49 -106 0
20 21 103 104 0
28 29 88 89 0
-8 10 58 59 0
